NAME : amtsp
TYPE : ATSP
DIMENSION : 6
EDGE_WEIGHT_TYPE : EXPLICIT
EDGE_WEIGHT_FORMAT : FULL_MATRIX
EDGE_WEIGHT_SECTION
0 204 203320 202361 201968 202218 
0 0 3932 3460 2829 3049 
0 3932 0 1155 1375 1595 
0 3460 1155 0 219 311 
0 2829 1375 219 0 219 
0 3049 1595 311 219 0 
